; Copyright (c) 2026 The RIINA Authors. All rights reserved.
; Auto-generated from 02_FORMAL/coq/domains/TestingQA.v (29 validations)
; Generated by scripts/generate-full-stack.py
;
; Translation Validation for TestingQA
; Layer 9: Verifies compiler backend preserves formal semantics.
; Each assertion checks source IR ≡ target code for a proven property.

(set-logic QF_LIA)
(set-option :produce-models true)

; IR node representation
(declare-sort IRNode 0)
(declare-sort TargetNode 0)

; is_constant_time: source semantics (matches Coq)
(declare-fun source_is_constant_time () Bool)
(declare-fun target_is_constant_time () Bool)
(assert (= source_is_constant_time target_is_constant_time))

; run_test: source semantics (matches Coq)
(declare-fun source_run_test () Bool)
(declare-fun target_run_test () Bool)
(assert (= source_run_test target_run_test))

; test_result_eqb: source semantics (matches Coq)
(declare-fun source_test_result_eqb () Bool)
(declare-fun target_test_result_eqb () Bool)
(assert (= source_test_result_eqb target_test_result_eqb))

; test_passed: source semantics (matches Coq)
(declare-fun source_test_passed () Bool)
(declare-fun target_test_passed () Bool)
(assert (= source_test_passed target_test_passed))

; initial_state: source semantics (matches Coq)
(declare-fun source_initial_state () Bool)
(declare-fun target_initial_state () Bool)
(assert (= source_initial_state target_initial_state))

; id_fixture: source semantics (matches Coq)
(declare-fun source_id_fixture () Bool)
(declare-fun target_id_fixture () Bool)
(assert (= source_id_fixture target_id_fixture))

; expected_panic: source semantics (matches Coq)
(declare-fun source_expected_panic () Bool)
(declare-fun target_expected_panic () Bool)
(assert (= source_expected_panic target_expected_panic))

; check_property: source semantics (matches Coq)
(declare-fun source_check_property () Bool)
(declare-fun target_check_property () Bool)
(assert (= source_check_property target_check_property))

; path_covered: source semantics (matches Coq)
(declare-fun source_path_covered () Bool)
(declare-fun target_path_covered () Bool)
(assert (= source_path_covered target_path_covered))

; valid_structured_input: source semantics (matches Coq)
(declare-fun source_valid_structured_input () Bool)
(declare-fun target_valid_structured_input () Bool)
(assert (= source_valid_structured_input target_valid_structured_input))

; differential_test: source semantics (matches Coq)
(declare-fun source_differential_test () Bool)
(declare-fun target_differential_test () Bool)
(assert (= source_differential_test target_differential_test))

; sanitizer_pass: source semantics (matches Coq)
(declare-fun source_sanitizer_pass () Bool)
(declare-fun target_sanitizer_pass () Bool)
(assert (= source_sanitizer_pass target_sanitizer_pass))

; satisfies_contract: source semantics (matches Coq)
(declare-fun source_satisfies_contract () Bool)
(declare-fun target_satisfies_contract () Bool)
(assert (= source_satisfies_contract target_satisfies_contract))

; mutation_valid: source semantics (matches Coq)
(declare-fun source_mutation_valid () Bool)
(declare-fun target_mutation_valid () Bool)
(assert (= source_mutation_valid target_mutation_valid))

; mutation_score: source semantics (matches Coq)
(declare-fun source_mutation_score () Bool)
(declare-fun target_mutation_score () Bool)
(assert (= source_mutation_score target_mutation_score))

; test_detects_mutation: source semantics (matches Coq)
(declare-fun source_test_detects_mutation () Bool)
(declare-fun target_test_detects_mutation () Bool)
(assert (= source_test_detects_mutation target_test_detects_mutation))

; timing_attack_detected: source semantics (matches Coq)
(declare-fun source_timing_attack_detected () Bool)
(declare-fun target_timing_attack_detected () Bool)
(assert (= source_timing_attack_detected target_timing_attack_detected))

; run_kat: source semantics (matches Coq)
(declare-fun source_run_kat () Bool)
(declare-fun target_run_kat () Bool)
(assert (= source_run_kat target_run_kat))

; check_brute_force: source semantics (matches Coq)
(declare-fun source_check_brute_force () Bool)
(declare-fun target_check_brute_force () Bool)
(assert (= source_check_brute_force target_check_brute_force))

; line_covered: source semantics (matches Coq)
(declare-fun source_line_covered () Bool)
(declare-fun target_line_covered () Bool)
(assert (= source_line_covered target_line_covered))

; sec_prop_eqb: source semantics (matches Coq)
(declare-fun source_sec_prop_eqb () Bool)
(declare-fun target_sec_prop_eqb () Bool)
(assert (= source_sec_prop_eqb target_sec_prop_eqb))

; security_prop_covered: source semantics (matches Coq)
(declare-fun source_security_prop_covered () Bool)
(declare-fun target_security_prop_covered () Bool)
(assert (= source_security_prop_covered target_security_prop_covered))

; all_security_covered: source semantics (matches Coq)
(declare-fun source_all_security_covered () Bool)
(declare-fun target_all_security_covered () Bool)
(assert (= source_all_security_covered target_all_security_covered))

; nat_eqb_refl: translation preserves property (matches Coq: Lemma)
(declare-fun source_nat_eqb_refl () Bool)
(declare-fun target_nat_eqb_refl () Bool)
(assert (= source_nat_eqb_refl target_nat_eqb_refl))

; forallb_true_iff: translation preserves property (matches Coq: Lemma)
(declare-fun source_forallb_true_iff () Bool)
(declare-fun target_forallb_true_iff () Bool)
(assert (= source_forallb_true_iff target_forallb_true_iff))

; existsb_exists: translation preserves property (matches Coq: Lemma)
(declare-fun source_existsb_exists () Bool)
(declare-fun target_existsb_exists () Bool)
(assert (= source_existsb_exists target_existsb_exists))

; list_beq_refl: translation preserves property (matches Coq: Lemma)
(declare-fun source_list_beq_refl () Bool)
(declare-fun target_list_beq_refl () Bool)
(assert (= source_list_beq_refl target_list_beq_refl))

; M_001_01: translation preserves property (matches Coq: Theorem)
(declare-fun source_M_001_01 () Bool)
(declare-fun target_M_001_01 () Bool)
(assert (= source_M_001_01 target_M_001_01))

; M_001_02: translation preserves property (matches Coq: Theorem)
(declare-fun source_M_001_02 () Bool)
(declare-fun target_M_001_02 () Bool)
(assert (= source_M_001_02 target_M_001_02))

; M_001_03: translation preserves property (matches Coq: Theorem)
(declare-fun source_M_001_03 () Bool)
(declare-fun target_M_001_03 () Bool)
(assert (= source_M_001_03 target_M_001_03))

; M_001_04: translation preserves property (matches Coq: Theorem)
(declare-fun source_M_001_04 () Bool)
(declare-fun target_M_001_04 () Bool)
(assert (= source_M_001_04 target_M_001_04))

; M_001_05: translation preserves property (matches Coq: Theorem)
(declare-fun source_M_001_05 () Bool)
(declare-fun target_M_001_05 () Bool)
(assert (= source_M_001_05 target_M_001_05))

; M_001_06: translation preserves property (matches Coq: Theorem)
(declare-fun source_M_001_06 () Bool)
(declare-fun target_M_001_06 () Bool)
(assert (= source_M_001_06 target_M_001_06))

; M_001_07: translation preserves property (matches Coq: Theorem)
(declare-fun source_M_001_07 () Bool)
(declare-fun target_M_001_07 () Bool)
(assert (= source_M_001_07 target_M_001_07))

; M_001_08: translation preserves property (matches Coq: Theorem)
(declare-fun source_M_001_08 () Bool)
(declare-fun target_M_001_08 () Bool)
(assert (= source_M_001_08 target_M_001_08))

; M_001_09: translation preserves property (matches Coq: Theorem)
(declare-fun source_M_001_09 () Bool)
(declare-fun target_M_001_09 () Bool)
(assert (= source_M_001_09 target_M_001_09))

; M_001_10: translation preserves property (matches Coq: Theorem)
(declare-fun source_M_001_10 () Bool)
(declare-fun target_M_001_10 () Bool)
(assert (= source_M_001_10 target_M_001_10))

; M_001_11: translation preserves property (matches Coq: Theorem)
(declare-fun source_M_001_11 () Bool)
(declare-fun target_M_001_11 () Bool)
(assert (= source_M_001_11 target_M_001_11))

; M_001_12: translation preserves property (matches Coq: Theorem)
(declare-fun source_M_001_12 () Bool)
(declare-fun target_M_001_12 () Bool)
(assert (= source_M_001_12 target_M_001_12))

; M_001_13: translation preserves property (matches Coq: Theorem)
(declare-fun source_M_001_13 () Bool)
(declare-fun target_M_001_13 () Bool)
(assert (= source_M_001_13 target_M_001_13))

; M_001_14: translation preserves property (matches Coq: Theorem)
(declare-fun source_M_001_14 () Bool)
(declare-fun target_M_001_14 () Bool)
(assert (= source_M_001_14 target_M_001_14))

; M_001_15: translation preserves property (matches Coq: Theorem)
(declare-fun source_M_001_15 () Bool)
(declare-fun target_M_001_15 () Bool)
(assert (= source_M_001_15 target_M_001_15))

; M_001_16: translation preserves property (matches Coq: Theorem)
(declare-fun source_M_001_16 () Bool)
(declare-fun target_M_001_16 () Bool)
(assert (= source_M_001_16 target_M_001_16))

; M_001_17: translation preserves property (matches Coq: Theorem)
(declare-fun source_M_001_17 () Bool)
(declare-fun target_M_001_17 () Bool)
(assert (= source_M_001_17 target_M_001_17))

; M_001_18: translation preserves property (matches Coq: Theorem)
(declare-fun source_M_001_18 () Bool)
(declare-fun target_M_001_18 () Bool)
(assert (= source_M_001_18 target_M_001_18))

; M_001_19: translation preserves property (matches Coq: Theorem)
(declare-fun source_M_001_19 () Bool)
(declare-fun target_M_001_19 () Bool)
(assert (= source_M_001_19 target_M_001_19))

; M_001_20: translation preserves property (matches Coq: Theorem)
(declare-fun source_M_001_20 () Bool)
(declare-fun target_M_001_20 () Bool)
(assert (= source_M_001_20 target_M_001_20))

; M_001_21: translation preserves property (matches Coq: Theorem)
(declare-fun source_M_001_21 () Bool)
(declare-fun target_M_001_21 () Bool)
(assert (= source_M_001_21 target_M_001_21))

; M_001_22: translation preserves property (matches Coq: Theorem)
(declare-fun source_M_001_22 () Bool)
(declare-fun target_M_001_22 () Bool)
(assert (= source_M_001_22 target_M_001_22))

; M_001_23: translation preserves property (matches Coq: Theorem)
(declare-fun source_M_001_23 () Bool)
(declare-fun target_M_001_23 () Bool)
(assert (= source_M_001_23 target_M_001_23))

; M_001_24: translation preserves property (matches Coq: Theorem)
(declare-fun source_M_001_24 () Bool)
(declare-fun target_M_001_24 () Bool)
(assert (= source_M_001_24 target_M_001_24))

; M_001_25: translation preserves property (matches Coq: Theorem)
(declare-fun source_M_001_25 () Bool)
(declare-fun target_M_001_25 () Bool)
(assert (= source_M_001_25 target_M_001_25))

; Verify all translation validations are satisfiable
(check-sat)
(exit)
